\* Problem: ModeleLivraison *\

Minimize
 Distance: + C(ALPHA,C1,1) + C(ALPHA,C1,2) + C(ALPHA,C1,3)
 + C(ALPHA,C1,4) + C(ALPHA,C1,5) + C(ALPHA,C1,6) + C(ALPHA,C2,1)
 + C(ALPHA,C2,2) + C(ALPHA,C2,3) + C(ALPHA,C2,4) + C(ALPHA,C2,5)
 + C(ALPHA,C2,6) + 10 C(ALPHA,C3,1) + 10 C(ALPHA,C3,2)
 + 10 C(ALPHA,C3,3) + 10 C(ALPHA,C3,4) + 10 C(ALPHA,C3,5)
 + 10 C(ALPHA,C3,6) + 12 C(ALPHA,C4,1) + 12 C(ALPHA,C4,2)
 + 12 C(ALPHA,C4,3) + 12 C(ALPHA,C4,4) + 12 C(ALPHA,C4,5)
 + 12 C(ALPHA,C4,6) + 12 C(ALPHA,C5,1) + 12 C(ALPHA,C5,2)
 + 12 C(ALPHA,C5,3) + 12 C(ALPHA,C5,4) + 12 C(ALPHA,C5,5)
 + 12 C(ALPHA,C5,6) + C(C1,ALPHA,1) + C(C1,ALPHA,2) + C(C1,ALPHA,3)
 + C(C1,ALPHA,4) + C(C1,ALPHA,5) + C(C1,ALPHA,6) + C(C1,C2,1)
 + C(C1,C2,2) + C(C1,C2,3) + C(C1,C2,4) + C(C1,C2,5) + C(C1,C2,6)
 + 8 C(C1,C3,1) + 8 C(C1,C3,2) + 8 C(C1,C3,3) + 8 C(C1,C3,4)
 + 8 C(C1,C3,5) + 8 C(C1,C3,6) + 10 C(C1,C4,1) + 10 C(C1,C4,2)
 + 10 C(C1,C4,3) + 10 C(C1,C4,4) + 10 C(C1,C4,5) + 10 C(C1,C4,6)
 + 11 C(C1,C5,1) + 11 C(C1,C5,2) + 11 C(C1,C5,3) + 11 C(C1,C5,4)
 + 11 C(C1,C5,5) + 11 C(C1,C5,6) + C(C2,ALPHA,1) + C(C2,ALPHA,2)
 + C(C2,ALPHA,3) + C(C2,ALPHA,4) + C(C2,ALPHA,5) + C(C2,ALPHA,6)
 + C(C2,C1,1) + C(C2,C1,2) + C(C2,C1,3) + C(C2,C1,4) + C(C2,C1,5)
 + C(C2,C1,6) + 8 C(C2,C3,1) + 8 C(C2,C3,2) + 8 C(C2,C3,3)
 + 8 C(C2,C3,4) + 8 C(C2,C3,5) + 8 C(C2,C3,6) + 11 C(C2,C4,1)
 + 11 C(C2,C4,2) + 11 C(C2,C4,3) + 11 C(C2,C4,4) + 11 C(C2,C4,5)
 + 11 C(C2,C4,6) + 10 C(C2,C5,1) + 10 C(C2,C5,2) + 10 C(C2,C5,3)
 + 10 C(C2,C5,4) + 10 C(C2,C5,5) + 10 C(C2,C5,6) + 10 C(C3,ALPHA,1)
 + 10 C(C3,ALPHA,2) + 10 C(C3,ALPHA,3) + 10 C(C3,ALPHA,4)
 + 10 C(C3,ALPHA,5) + 10 C(C3,ALPHA,6) + 8 C(C3,C1,1) + 8 C(C3,C1,2)
 + 8 C(C3,C1,3) + 8 C(C3,C1,4) + 8 C(C3,C1,5) + 8 C(C3,C1,6)
 + 8 C(C3,C2,1) + 8 C(C3,C2,2) + 8 C(C3,C2,3) + 8 C(C3,C2,4)
 + 8 C(C3,C2,5) + 8 C(C3,C2,6) + C(C3,C4,1) + C(C3,C4,2) + C(C3,C4,3)
 + C(C3,C4,4) + C(C3,C4,5) + C(C3,C4,6) + C(C3,C5,1) + C(C3,C5,2)
 + C(C3,C5,3) + C(C3,C5,4) + C(C3,C5,5) + C(C3,C5,6) + 12 C(C4,ALPHA,1)
 + 12 C(C4,ALPHA,2) + 12 C(C4,ALPHA,3) + 12 C(C4,ALPHA,4)
 + 12 C(C4,ALPHA,5) + 12 C(C4,ALPHA,6) + 10 C(C4,C1,1) + 10 C(C4,C1,2)
 + 10 C(C4,C1,3) + 10 C(C4,C1,4) + 10 C(C4,C1,5) + 10 C(C4,C1,6)
 + 11 C(C4,C2,1) + 11 C(C4,C2,2) + 11 C(C4,C2,3) + 11 C(C4,C2,4)
 + 11 C(C4,C2,5) + 11 C(C4,C2,6) + C(C4,C3,1) + C(C4,C3,2) + C(C4,C3,3)
 + C(C4,C3,4) + C(C4,C3,5) + C(C4,C3,6) + C(C4,C5,1) + C(C4,C5,2)
 + C(C4,C5,3) + C(C4,C5,4) + C(C4,C5,5) + C(C4,C5,6) + 12 C(C5,ALPHA,1)
 + 12 C(C5,ALPHA,2) + 12 C(C5,ALPHA,3) + 12 C(C5,ALPHA,4)
 + 12 C(C5,ALPHA,5) + 12 C(C5,ALPHA,6) + 11 C(C5,C1,1) + 11 C(C5,C1,2)
 + 11 C(C5,C1,3) + 11 C(C5,C1,4) + 11 C(C5,C1,5) + 11 C(C5,C1,6)
 + 10 C(C5,C2,1) + 10 C(C5,C2,2) + 10 C(C5,C2,3) + 10 C(C5,C2,4)
 + 10 C(C5,C2,5) + 10 C(C5,C2,6) + C(C5,C3,1) + C(C5,C3,2) + C(C5,C3,3)
 + C(C5,C3,4) + C(C5,C3,5) + C(C5,C3,6) + C(C5,C4,1) + C(C5,C4,2)
 + C(C5,C4,3) + C(C5,C4,4) + C(C5,C4,5) + C(C5,C4,6)

Subject To
 SommetAriveeUneFois(ALPHA): + C(ALPHA,ALPHA,1) + C(ALPHA,ALPHA,2)
 + C(ALPHA,ALPHA,3) + C(ALPHA,ALPHA,4) + C(ALPHA,ALPHA,5)
 + C(ALPHA,ALPHA,6) + C(ALPHA,C1,1) + C(ALPHA,C1,2) + C(ALPHA,C1,3)
 + C(ALPHA,C1,4) + C(ALPHA,C1,5) + C(ALPHA,C1,6) + C(ALPHA,C2,1)
 + C(ALPHA,C2,2) + C(ALPHA,C2,3) + C(ALPHA,C2,4) + C(ALPHA,C2,5)
 + C(ALPHA,C2,6) + C(ALPHA,C3,1) + C(ALPHA,C3,2) + C(ALPHA,C3,3)
 + C(ALPHA,C3,4) + C(ALPHA,C3,5) + C(ALPHA,C3,6) + C(ALPHA,C4,1)
 + C(ALPHA,C4,2) + C(ALPHA,C4,3) + C(ALPHA,C4,4) + C(ALPHA,C4,5)
 + C(ALPHA,C4,6) + C(ALPHA,C5,1) + C(ALPHA,C5,2) + C(ALPHA,C5,3)
 + C(ALPHA,C5,4) + C(ALPHA,C5,5) + C(ALPHA,C5,6) = 1
 SommetAriveeUneFois(C1): + C(C1,ALPHA,1) + C(C1,ALPHA,2)
 + C(C1,ALPHA,3) + C(C1,ALPHA,4) + C(C1,ALPHA,5) + C(C1,ALPHA,6)
 + C(C1,C1,1) + C(C1,C1,2) + C(C1,C1,3) + C(C1,C1,4) + C(C1,C1,5)
 + C(C1,C1,6) + C(C1,C2,1) + C(C1,C2,2) + C(C1,C2,3) + C(C1,C2,4)
 + C(C1,C2,5) + C(C1,C2,6) + C(C1,C3,1) + C(C1,C3,2) + C(C1,C3,3)
 + C(C1,C3,4) + C(C1,C3,5) + C(C1,C3,6) + C(C1,C4,1) + C(C1,C4,2)
 + C(C1,C4,3) + C(C1,C4,4) + C(C1,C4,5) + C(C1,C4,6) + C(C1,C5,1)
 + C(C1,C5,2) + C(C1,C5,3) + C(C1,C5,4) + C(C1,C5,5) + C(C1,C5,6) = 1
 SommetAriveeUneFois(C2): + C(C2,ALPHA,1) + C(C2,ALPHA,2)
 + C(C2,ALPHA,3) + C(C2,ALPHA,4) + C(C2,ALPHA,5) + C(C2,ALPHA,6)
 + C(C2,C1,1) + C(C2,C1,2) + C(C2,C1,3) + C(C2,C1,4) + C(C2,C1,5)
 + C(C2,C1,6) + C(C2,C2,1) + C(C2,C2,2) + C(C2,C2,3) + C(C2,C2,4)
 + C(C2,C2,5) + C(C2,C2,6) + C(C2,C3,1) + C(C2,C3,2) + C(C2,C3,3)
 + C(C2,C3,4) + C(C2,C3,5) + C(C2,C3,6) + C(C2,C4,1) + C(C2,C4,2)
 + C(C2,C4,3) + C(C2,C4,4) + C(C2,C4,5) + C(C2,C4,6) + C(C2,C5,1)
 + C(C2,C5,2) + C(C2,C5,3) + C(C2,C5,4) + C(C2,C5,5) + C(C2,C5,6) = 1
 SommetAriveeUneFois(C3): + C(C3,ALPHA,1) + C(C3,ALPHA,2)
 + C(C3,ALPHA,3) + C(C3,ALPHA,4) + C(C3,ALPHA,5) + C(C3,ALPHA,6)
 + C(C3,C1,1) + C(C3,C1,2) + C(C3,C1,3) + C(C3,C1,4) + C(C3,C1,5)
 + C(C3,C1,6) + C(C3,C2,1) + C(C3,C2,2) + C(C3,C2,3) + C(C3,C2,4)
 + C(C3,C2,5) + C(C3,C2,6) + C(C3,C3,1) + C(C3,C3,2) + C(C3,C3,3)
 + C(C3,C3,4) + C(C3,C3,5) + C(C3,C3,6) + C(C3,C4,1) + C(C3,C4,2)
 + C(C3,C4,3) + C(C3,C4,4) + C(C3,C4,5) + C(C3,C4,6) + C(C3,C5,1)
 + C(C3,C5,2) + C(C3,C5,3) + C(C3,C5,4) + C(C3,C5,5) + C(C3,C5,6) = 1
 SommetAriveeUneFois(C4): + C(C4,ALPHA,1) + C(C4,ALPHA,2)
 + C(C4,ALPHA,3) + C(C4,ALPHA,4) + C(C4,ALPHA,5) + C(C4,ALPHA,6)
 + C(C4,C1,1) + C(C4,C1,2) + C(C4,C1,3) + C(C4,C1,4) + C(C4,C1,5)
 + C(C4,C1,6) + C(C4,C2,1) + C(C4,C2,2) + C(C4,C2,3) + C(C4,C2,4)
 + C(C4,C2,5) + C(C4,C2,6) + C(C4,C3,1) + C(C4,C3,2) + C(C4,C3,3)
 + C(C4,C3,4) + C(C4,C3,5) + C(C4,C3,6) + C(C4,C4,1) + C(C4,C4,2)
 + C(C4,C4,3) + C(C4,C4,4) + C(C4,C4,5) + C(C4,C4,6) + C(C4,C5,1)
 + C(C4,C5,2) + C(C4,C5,3) + C(C4,C5,4) + C(C4,C5,5) + C(C4,C5,6) = 1
 SommetAriveeUneFois(C5): + C(C5,ALPHA,1) + C(C5,ALPHA,2)
 + C(C5,ALPHA,3) + C(C5,ALPHA,4) + C(C5,ALPHA,5) + C(C5,ALPHA,6)
 + C(C5,C1,1) + C(C5,C1,2) + C(C5,C1,3) + C(C5,C1,4) + C(C5,C1,5)
 + C(C5,C1,6) + C(C5,C2,1) + C(C5,C2,2) + C(C5,C2,3) + C(C5,C2,4)
 + C(C5,C2,5) + C(C5,C2,6) + C(C5,C3,1) + C(C5,C3,2) + C(C5,C3,3)
 + C(C5,C3,4) + C(C5,C3,5) + C(C5,C3,6) + C(C5,C4,1) + C(C5,C4,2)
 + C(C5,C4,3) + C(C5,C4,4) + C(C5,C4,5) + C(C5,C4,6) + C(C5,C5,1)
 + C(C5,C5,2) + C(C5,C5,3) + C(C5,C5,4) + C(C5,C5,5) + C(C5,C5,6) = 1
 SommetDepartUneFois(ALPHA): + C(ALPHA,ALPHA,1) + C(ALPHA,ALPHA,2)
 + C(ALPHA,ALPHA,3) + C(ALPHA,ALPHA,4) + C(ALPHA,ALPHA,5)
 + C(ALPHA,ALPHA,6) + C(C1,ALPHA,1) + C(C1,ALPHA,2) + C(C1,ALPHA,3)
 + C(C1,ALPHA,4) + C(C1,ALPHA,5) + C(C1,ALPHA,6) + C(C2,ALPHA,1)
 + C(C2,ALPHA,2) + C(C2,ALPHA,3) + C(C2,ALPHA,4) + C(C2,ALPHA,5)
 + C(C2,ALPHA,6) + C(C3,ALPHA,1) + C(C3,ALPHA,2) + C(C3,ALPHA,3)
 + C(C3,ALPHA,4) + C(C3,ALPHA,5) + C(C3,ALPHA,6) + C(C4,ALPHA,1)
 + C(C4,ALPHA,2) + C(C4,ALPHA,3) + C(C4,ALPHA,4) + C(C4,ALPHA,5)
 + C(C4,ALPHA,6) + C(C5,ALPHA,1) + C(C5,ALPHA,2) + C(C5,ALPHA,3)
 + C(C5,ALPHA,4) + C(C5,ALPHA,5) + C(C5,ALPHA,6) = 1
 SommetDepartUneFois(C1): + C(ALPHA,C1,1) + C(ALPHA,C1,2)
 + C(ALPHA,C1,3) + C(ALPHA,C1,4) + C(ALPHA,C1,5) + C(ALPHA,C1,6)
 + C(C1,C1,1) + C(C1,C1,2) + C(C1,C1,3) + C(C1,C1,4) + C(C1,C1,5)
 + C(C1,C1,6) + C(C2,C1,1) + C(C2,C1,2) + C(C2,C1,3) + C(C2,C1,4)
 + C(C2,C1,5) + C(C2,C1,6) + C(C3,C1,1) + C(C3,C1,2) + C(C3,C1,3)
 + C(C3,C1,4) + C(C3,C1,5) + C(C3,C1,6) + C(C4,C1,1) + C(C4,C1,2)
 + C(C4,C1,3) + C(C4,C1,4) + C(C4,C1,5) + C(C4,C1,6) + C(C5,C1,1)
 + C(C5,C1,2) + C(C5,C1,3) + C(C5,C1,4) + C(C5,C1,5) + C(C5,C1,6) = 1
 SommetDepartUneFois(C2): + C(ALPHA,C2,1) + C(ALPHA,C2,2)
 + C(ALPHA,C2,3) + C(ALPHA,C2,4) + C(ALPHA,C2,5) + C(ALPHA,C2,6)
 + C(C1,C2,1) + C(C1,C2,2) + C(C1,C2,3) + C(C1,C2,4) + C(C1,C2,5)
 + C(C1,C2,6) + C(C2,C2,1) + C(C2,C2,2) + C(C2,C2,3) + C(C2,C2,4)
 + C(C2,C2,5) + C(C2,C2,6) + C(C3,C2,1) + C(C3,C2,2) + C(C3,C2,3)
 + C(C3,C2,4) + C(C3,C2,5) + C(C3,C2,6) + C(C4,C2,1) + C(C4,C2,2)
 + C(C4,C2,3) + C(C4,C2,4) + C(C4,C2,5) + C(C4,C2,6) + C(C5,C2,1)
 + C(C5,C2,2) + C(C5,C2,3) + C(C5,C2,4) + C(C5,C2,5) + C(C5,C2,6) = 1
 SommetDepartUneFois(C3): + C(ALPHA,C3,1) + C(ALPHA,C3,2)
 + C(ALPHA,C3,3) + C(ALPHA,C3,4) + C(ALPHA,C3,5) + C(ALPHA,C3,6)
 + C(C1,C3,1) + C(C1,C3,2) + C(C1,C3,3) + C(C1,C3,4) + C(C1,C3,5)
 + C(C1,C3,6) + C(C2,C3,1) + C(C2,C3,2) + C(C2,C3,3) + C(C2,C3,4)
 + C(C2,C3,5) + C(C2,C3,6) + C(C3,C3,1) + C(C3,C3,2) + C(C3,C3,3)
 + C(C3,C3,4) + C(C3,C3,5) + C(C3,C3,6) + C(C4,C3,1) + C(C4,C3,2)
 + C(C4,C3,3) + C(C4,C3,4) + C(C4,C3,5) + C(C4,C3,6) + C(C5,C3,1)
 + C(C5,C3,2) + C(C5,C3,3) + C(C5,C3,4) + C(C5,C3,5) + C(C5,C3,6) = 1
 SommetDepartUneFois(C4): + C(ALPHA,C4,1) + C(ALPHA,C4,2)
 + C(ALPHA,C4,3) + C(ALPHA,C4,4) + C(ALPHA,C4,5) + C(ALPHA,C4,6)
 + C(C1,C4,1) + C(C1,C4,2) + C(C1,C4,3) + C(C1,C4,4) + C(C1,C4,5)
 + C(C1,C4,6) + C(C2,C4,1) + C(C2,C4,2) + C(C2,C4,3) + C(C2,C4,4)
 + C(C2,C4,5) + C(C2,C4,6) + C(C3,C4,1) + C(C3,C4,2) + C(C3,C4,3)
 + C(C3,C4,4) + C(C3,C4,5) + C(C3,C4,6) + C(C4,C4,1) + C(C4,C4,2)
 + C(C4,C4,3) + C(C4,C4,4) + C(C4,C4,5) + C(C4,C4,6) + C(C5,C4,1)
 + C(C5,C4,2) + C(C5,C4,3) + C(C5,C4,4) + C(C5,C4,5) + C(C5,C4,6) = 1
 SommetDepartUneFois(C5): + C(ALPHA,C5,1) + C(ALPHA,C5,2)
 + C(ALPHA,C5,3) + C(ALPHA,C5,4) + C(ALPHA,C5,5) + C(ALPHA,C5,6)
 + C(C1,C5,1) + C(C1,C5,2) + C(C1,C5,3) + C(C1,C5,4) + C(C1,C5,5)
 + C(C1,C5,6) + C(C2,C5,1) + C(C2,C5,2) + C(C2,C5,3) + C(C2,C5,4)
 + C(C2,C5,5) + C(C2,C5,6) + C(C3,C5,1) + C(C3,C5,2) + C(C3,C5,3)
 + C(C3,C5,4) + C(C3,C5,5) + C(C3,C5,6) + C(C4,C5,1) + C(C4,C5,2)
 + C(C4,C5,3) + C(C4,C5,4) + C(C4,C5,5) + C(C4,C5,6) + C(C5,C5,1)
 + C(C5,C5,2) + C(C5,C5,3) + C(C5,C5,4) + C(C5,C5,5) + C(C5,C5,6) = 1
 SommetTemporaliteUneFois(1): + C(ALPHA,ALPHA,1) + C(ALPHA,C1,1)
 + C(ALPHA,C2,1) + C(ALPHA,C3,1) + C(ALPHA,C4,1) + C(ALPHA,C5,1)
 + C(C1,ALPHA,1) + C(C1,C1,1) + C(C1,C2,1) + C(C1,C3,1) + C(C1,C4,1)
 + C(C1,C5,1) + C(C2,ALPHA,1) + C(C2,C1,1) + C(C2,C2,1) + C(C2,C3,1)
 + C(C2,C4,1) + C(C2,C5,1) + C(C3,ALPHA,1) + C(C3,C1,1) + C(C3,C2,1)
 + C(C3,C3,1) + C(C3,C4,1) + C(C3,C5,1) + C(C4,ALPHA,1) + C(C4,C1,1)
 + C(C4,C2,1) + C(C4,C3,1) + C(C4,C4,1) + C(C4,C5,1) + C(C5,ALPHA,1)
 + C(C5,C1,1) + C(C5,C2,1) + C(C5,C3,1) + C(C5,C4,1) + C(C5,C5,1) = 1
 SommetTemporaliteUneFois(2): + C(ALPHA,ALPHA,2) + C(ALPHA,C1,2)
 + C(ALPHA,C2,2) + C(ALPHA,C3,2) + C(ALPHA,C4,2) + C(ALPHA,C5,2)
 + C(C1,ALPHA,2) + C(C1,C1,2) + C(C1,C2,2) + C(C1,C3,2) + C(C1,C4,2)
 + C(C1,C5,2) + C(C2,ALPHA,2) + C(C2,C1,2) + C(C2,C2,2) + C(C2,C3,2)
 + C(C2,C4,2) + C(C2,C5,2) + C(C3,ALPHA,2) + C(C3,C1,2) + C(C3,C2,2)
 + C(C3,C3,2) + C(C3,C4,2) + C(C3,C5,2) + C(C4,ALPHA,2) + C(C4,C1,2)
 + C(C4,C2,2) + C(C4,C3,2) + C(C4,C4,2) + C(C4,C5,2) + C(C5,ALPHA,2)
 + C(C5,C1,2) + C(C5,C2,2) + C(C5,C3,2) + C(C5,C4,2) + C(C5,C5,2) = 1
 SommetTemporaliteUneFois(3): + C(ALPHA,ALPHA,3) + C(ALPHA,C1,3)
 + C(ALPHA,C2,3) + C(ALPHA,C3,3) + C(ALPHA,C4,3) + C(ALPHA,C5,3)
 + C(C1,ALPHA,3) + C(C1,C1,3) + C(C1,C2,3) + C(C1,C3,3) + C(C1,C4,3)
 + C(C1,C5,3) + C(C2,ALPHA,3) + C(C2,C1,3) + C(C2,C2,3) + C(C2,C3,3)
 + C(C2,C4,3) + C(C2,C5,3) + C(C3,ALPHA,3) + C(C3,C1,3) + C(C3,C2,3)
 + C(C3,C3,3) + C(C3,C4,3) + C(C3,C5,3) + C(C4,ALPHA,3) + C(C4,C1,3)
 + C(C4,C2,3) + C(C4,C3,3) + C(C4,C4,3) + C(C4,C5,3) + C(C5,ALPHA,3)
 + C(C5,C1,3) + C(C5,C2,3) + C(C5,C3,3) + C(C5,C4,3) + C(C5,C5,3) = 1
 SommetTemporaliteUneFois(4): + C(ALPHA,ALPHA,4) + C(ALPHA,C1,4)
 + C(ALPHA,C2,4) + C(ALPHA,C3,4) + C(ALPHA,C4,4) + C(ALPHA,C5,4)
 + C(C1,ALPHA,4) + C(C1,C1,4) + C(C1,C2,4) + C(C1,C3,4) + C(C1,C4,4)
 + C(C1,C5,4) + C(C2,ALPHA,4) + C(C2,C1,4) + C(C2,C2,4) + C(C2,C3,4)
 + C(C2,C4,4) + C(C2,C5,4) + C(C3,ALPHA,4) + C(C3,C1,4) + C(C3,C2,4)
 + C(C3,C3,4) + C(C3,C4,4) + C(C3,C5,4) + C(C4,ALPHA,4) + C(C4,C1,4)
 + C(C4,C2,4) + C(C4,C3,4) + C(C4,C4,4) + C(C4,C5,4) + C(C5,ALPHA,4)
 + C(C5,C1,4) + C(C5,C2,4) + C(C5,C3,4) + C(C5,C4,4) + C(C5,C5,4) = 1
 SommetTemporaliteUneFois(5): + C(ALPHA,ALPHA,5) + C(ALPHA,C1,5)
 + C(ALPHA,C2,5) + C(ALPHA,C3,5) + C(ALPHA,C4,5) + C(ALPHA,C5,5)
 + C(C1,ALPHA,5) + C(C1,C1,5) + C(C1,C2,5) + C(C1,C3,5) + C(C1,C4,5)
 + C(C1,C5,5) + C(C2,ALPHA,5) + C(C2,C1,5) + C(C2,C2,5) + C(C2,C3,5)
 + C(C2,C4,5) + C(C2,C5,5) + C(C3,ALPHA,5) + C(C3,C1,5) + C(C3,C2,5)
 + C(C3,C3,5) + C(C3,C4,5) + C(C3,C5,5) + C(C4,ALPHA,5) + C(C4,C1,5)
 + C(C4,C2,5) + C(C4,C3,5) + C(C4,C4,5) + C(C4,C5,5) + C(C5,ALPHA,5)
 + C(C5,C1,5) + C(C5,C2,5) + C(C5,C3,5) + C(C5,C4,5) + C(C5,C5,5) = 1
 SommetTemporaliteUneFois(6): + C(ALPHA,ALPHA,6) + C(ALPHA,C1,6)
 + C(ALPHA,C2,6) + C(ALPHA,C3,6) + C(ALPHA,C4,6) + C(ALPHA,C5,6)
 + C(C1,ALPHA,6) + C(C1,C1,6) + C(C1,C2,6) + C(C1,C3,6) + C(C1,C4,6)
 + C(C1,C5,6) + C(C2,ALPHA,6) + C(C2,C1,6) + C(C2,C2,6) + C(C2,C3,6)
 + C(C2,C4,6) + C(C2,C5,6) + C(C3,ALPHA,6) + C(C3,C1,6) + C(C3,C2,6)
 + C(C3,C3,6) + C(C3,C4,6) + C(C3,C5,6) + C(C4,ALPHA,6) + C(C4,C1,6)
 + C(C4,C2,6) + C(C4,C3,6) + C(C4,C4,6) + C(C4,C5,6) + C(C5,ALPHA,6)
 + C(C5,C1,6) + C(C5,C2,6) + C(C5,C3,6) + C(C5,C4,6) + C(C5,C5,6) = 1
 TemporaliteCoherente(1,ALPHA): + C(ALPHA,ALPHA,1) - C(ALPHA,ALPHA,2)
 - C(ALPHA,C1,2) - C(ALPHA,C2,2) - C(ALPHA,C3,2) - C(ALPHA,C4,2)
 - C(ALPHA,C5,2) + C(C1,ALPHA,1) + C(C2,ALPHA,1) + C(C3,ALPHA,1)
 + C(C4,ALPHA,1) + C(C5,ALPHA,1) = -0
 TemporaliteCoherente(1,C1): + C(ALPHA,C1,1) - C(C1,ALPHA,2)
 + C(C1,C1,1) - C(C1,C1,2) - C(C1,C2,2) - C(C1,C3,2) - C(C1,C4,2)
 - C(C1,C5,2) + C(C2,C1,1) + C(C3,C1,1) + C(C4,C1,1) + C(C5,C1,1) = -0
 TemporaliteCoherente(1,C2): + C(ALPHA,C2,1) + C(C1,C2,1)
 - C(C2,ALPHA,2) - C(C2,C1,2) + C(C2,C2,1) - C(C2,C2,2) - C(C2,C3,2)
 - C(C2,C4,2) - C(C2,C5,2) + C(C3,C2,1) + C(C4,C2,1) + C(C5,C2,1) = -0
 TemporaliteCoherente(1,C3): + C(ALPHA,C3,1) + C(C1,C3,1) + C(C2,C3,1)
 - C(C3,ALPHA,2) - C(C3,C1,2) - C(C3,C2,2) + C(C3,C3,1) - C(C3,C3,2)
 - C(C3,C4,2) - C(C3,C5,2) + C(C4,C3,1) + C(C5,C3,1) = -0
 TemporaliteCoherente(1,C4): + C(ALPHA,C4,1) + C(C1,C4,1) + C(C2,C4,1)
 + C(C3,C4,1) - C(C4,ALPHA,2) - C(C4,C1,2) - C(C4,C2,2) - C(C4,C3,2)
 + C(C4,C4,1) - C(C4,C4,2) - C(C4,C5,2) + C(C5,C4,1) = -0
 TemporaliteCoherente(1,C5): + C(ALPHA,C5,1) + C(C1,C5,1) + C(C2,C5,1)
 + C(C3,C5,1) + C(C4,C5,1) - C(C5,ALPHA,2) - C(C5,C1,2) - C(C5,C2,2)
 - C(C5,C3,2) - C(C5,C4,2) + C(C5,C5,1) - C(C5,C5,2) = -0
 TemporaliteCoherente(2,ALPHA): + C(ALPHA,ALPHA,2) - C(ALPHA,ALPHA,3)
 - C(ALPHA,C1,3) - C(ALPHA,C2,3) - C(ALPHA,C3,3) - C(ALPHA,C4,3)
 - C(ALPHA,C5,3) + C(C1,ALPHA,2) + C(C2,ALPHA,2) + C(C3,ALPHA,2)
 + C(C4,ALPHA,2) + C(C5,ALPHA,2) = -0
 TemporaliteCoherente(2,C1): + C(ALPHA,C1,2) - C(C1,ALPHA,3)
 + C(C1,C1,2) - C(C1,C1,3) - C(C1,C2,3) - C(C1,C3,3) - C(C1,C4,3)
 - C(C1,C5,3) + C(C2,C1,2) + C(C3,C1,2) + C(C4,C1,2) + C(C5,C1,2) = -0
 TemporaliteCoherente(2,C2): + C(ALPHA,C2,2) + C(C1,C2,2)
 - C(C2,ALPHA,3) - C(C2,C1,3) + C(C2,C2,2) - C(C2,C2,3) - C(C2,C3,3)
 - C(C2,C4,3) - C(C2,C5,3) + C(C3,C2,2) + C(C4,C2,2) + C(C5,C2,2) = -0
 TemporaliteCoherente(2,C3): + C(ALPHA,C3,2) + C(C1,C3,2) + C(C2,C3,2)
 - C(C3,ALPHA,3) - C(C3,C1,3) - C(C3,C2,3) + C(C3,C3,2) - C(C3,C3,3)
 - C(C3,C4,3) - C(C3,C5,3) + C(C4,C3,2) + C(C5,C3,2) = -0
 TemporaliteCoherente(2,C4): + C(ALPHA,C4,2) + C(C1,C4,2) + C(C2,C4,2)
 + C(C3,C4,2) - C(C4,ALPHA,3) - C(C4,C1,3) - C(C4,C2,3) - C(C4,C3,3)
 + C(C4,C4,2) - C(C4,C4,3) - C(C4,C5,3) + C(C5,C4,2) = -0
 TemporaliteCoherente(2,C5): + C(ALPHA,C5,2) + C(C1,C5,2) + C(C2,C5,2)
 + C(C3,C5,2) + C(C4,C5,2) - C(C5,ALPHA,3) - C(C5,C1,3) - C(C5,C2,3)
 - C(C5,C3,3) - C(C5,C4,3) + C(C5,C5,2) - C(C5,C5,3) = -0
 TemporaliteCoherente(3,ALPHA): + C(ALPHA,ALPHA,3) - C(ALPHA,ALPHA,4)
 - C(ALPHA,C1,4) - C(ALPHA,C2,4) - C(ALPHA,C3,4) - C(ALPHA,C4,4)
 - C(ALPHA,C5,4) + C(C1,ALPHA,3) + C(C2,ALPHA,3) + C(C3,ALPHA,3)
 + C(C4,ALPHA,3) + C(C5,ALPHA,3) = -0
 TemporaliteCoherente(3,C1): + C(ALPHA,C1,3) - C(C1,ALPHA,4)
 + C(C1,C1,3) - C(C1,C1,4) - C(C1,C2,4) - C(C1,C3,4) - C(C1,C4,4)
 - C(C1,C5,4) + C(C2,C1,3) + C(C3,C1,3) + C(C4,C1,3) + C(C5,C1,3) = -0
 TemporaliteCoherente(3,C2): + C(ALPHA,C2,3) + C(C1,C2,3)
 - C(C2,ALPHA,4) - C(C2,C1,4) + C(C2,C2,3) - C(C2,C2,4) - C(C2,C3,4)
 - C(C2,C4,4) - C(C2,C5,4) + C(C3,C2,3) + C(C4,C2,3) + C(C5,C2,3) = -0
 TemporaliteCoherente(3,C3): + C(ALPHA,C3,3) + C(C1,C3,3) + C(C2,C3,3)
 - C(C3,ALPHA,4) - C(C3,C1,4) - C(C3,C2,4) + C(C3,C3,3) - C(C3,C3,4)
 - C(C3,C4,4) - C(C3,C5,4) + C(C4,C3,3) + C(C5,C3,3) = -0
 TemporaliteCoherente(3,C4): + C(ALPHA,C4,3) + C(C1,C4,3) + C(C2,C4,3)
 + C(C3,C4,3) - C(C4,ALPHA,4) - C(C4,C1,4) - C(C4,C2,4) - C(C4,C3,4)
 + C(C4,C4,3) - C(C4,C4,4) - C(C4,C5,4) + C(C5,C4,3) = -0
 TemporaliteCoherente(3,C5): + C(ALPHA,C5,3) + C(C1,C5,3) + C(C2,C5,3)
 + C(C3,C5,3) + C(C4,C5,3) - C(C5,ALPHA,4) - C(C5,C1,4) - C(C5,C2,4)
 - C(C5,C3,4) - C(C5,C4,4) + C(C5,C5,3) - C(C5,C5,4) = -0
 TemporaliteCoherente(4,ALPHA): + C(ALPHA,ALPHA,4) - C(ALPHA,ALPHA,5)
 - C(ALPHA,C1,5) - C(ALPHA,C2,5) - C(ALPHA,C3,5) - C(ALPHA,C4,5)
 - C(ALPHA,C5,5) + C(C1,ALPHA,4) + C(C2,ALPHA,4) + C(C3,ALPHA,4)
 + C(C4,ALPHA,4) + C(C5,ALPHA,4) = -0
 TemporaliteCoherente(4,C1): + C(ALPHA,C1,4) - C(C1,ALPHA,5)
 + C(C1,C1,4) - C(C1,C1,5) - C(C1,C2,5) - C(C1,C3,5) - C(C1,C4,5)
 - C(C1,C5,5) + C(C2,C1,4) + C(C3,C1,4) + C(C4,C1,4) + C(C5,C1,4) = -0
 TemporaliteCoherente(4,C2): + C(ALPHA,C2,4) + C(C1,C2,4)
 - C(C2,ALPHA,5) - C(C2,C1,5) + C(C2,C2,4) - C(C2,C2,5) - C(C2,C3,5)
 - C(C2,C4,5) - C(C2,C5,5) + C(C3,C2,4) + C(C4,C2,4) + C(C5,C2,4) = -0
 TemporaliteCoherente(4,C3): + C(ALPHA,C3,4) + C(C1,C3,4) + C(C2,C3,4)
 - C(C3,ALPHA,5) - C(C3,C1,5) - C(C3,C2,5) + C(C3,C3,4) - C(C3,C3,5)
 - C(C3,C4,5) - C(C3,C5,5) + C(C4,C3,4) + C(C5,C3,4) = -0
 TemporaliteCoherente(4,C4): + C(ALPHA,C4,4) + C(C1,C4,4) + C(C2,C4,4)
 + C(C3,C4,4) - C(C4,ALPHA,5) - C(C4,C1,5) - C(C4,C2,5) - C(C4,C3,5)
 + C(C4,C4,4) - C(C4,C4,5) - C(C4,C5,5) + C(C5,C4,4) = -0
 TemporaliteCoherente(4,C5): + C(ALPHA,C5,4) + C(C1,C5,4) + C(C2,C5,4)
 + C(C3,C5,4) + C(C4,C5,4) - C(C5,ALPHA,5) - C(C5,C1,5) - C(C5,C2,5)
 - C(C5,C3,5) - C(C5,C4,5) + C(C5,C5,4) - C(C5,C5,5) = -0
 TemporaliteCoherente(5,ALPHA): + C(ALPHA,ALPHA,5) - C(ALPHA,ALPHA,6)
 - C(ALPHA,C1,6) - C(ALPHA,C2,6) - C(ALPHA,C3,6) - C(ALPHA,C4,6)
 - C(ALPHA,C5,6) + C(C1,ALPHA,5) + C(C2,ALPHA,5) + C(C3,ALPHA,5)
 + C(C4,ALPHA,5) + C(C5,ALPHA,5) = -0
 TemporaliteCoherente(5,C1): + C(ALPHA,C1,5) - C(C1,ALPHA,6)
 + C(C1,C1,5) - C(C1,C1,6) - C(C1,C2,6) - C(C1,C3,6) - C(C1,C4,6)
 - C(C1,C5,6) + C(C2,C1,5) + C(C3,C1,5) + C(C4,C1,5) + C(C5,C1,5) = -0
 TemporaliteCoherente(5,C2): + C(ALPHA,C2,5) + C(C1,C2,5)
 - C(C2,ALPHA,6) - C(C2,C1,6) + C(C2,C2,5) - C(C2,C2,6) - C(C2,C3,6)
 - C(C2,C4,6) - C(C2,C5,6) + C(C3,C2,5) + C(C4,C2,5) + C(C5,C2,5) = -0
 TemporaliteCoherente(5,C3): + C(ALPHA,C3,5) + C(C1,C3,5) + C(C2,C3,5)
 - C(C3,ALPHA,6) - C(C3,C1,6) - C(C3,C2,6) + C(C3,C3,5) - C(C3,C3,6)
 - C(C3,C4,6) - C(C3,C5,6) + C(C4,C3,5) + C(C5,C3,5) = -0
 TemporaliteCoherente(5,C4): + C(ALPHA,C4,5) + C(C1,C4,5) + C(C2,C4,5)
 + C(C3,C4,5) - C(C4,ALPHA,6) - C(C4,C1,6) - C(C4,C2,6) - C(C4,C3,6)
 + C(C4,C4,5) - C(C4,C4,6) - C(C4,C5,6) + C(C5,C4,5) = -0
 TemporaliteCoherente(5,C5): + C(ALPHA,C5,5) + C(C1,C5,5) + C(C2,C5,5)
 + C(C3,C5,5) + C(C4,C5,5) - C(C5,ALPHA,6) - C(C5,C1,6) - C(C5,C2,6)
 - C(C5,C3,6) - C(C5,C4,6) + C(C5,C5,5) - C(C5,C5,6) = -0

Bounds
 0 <= C(ALPHA,ALPHA,1) <= 1
 0 <= C(ALPHA,ALPHA,2) <= 1
 0 <= C(ALPHA,ALPHA,3) <= 1
 0 <= C(ALPHA,ALPHA,4) <= 1
 0 <= C(ALPHA,ALPHA,5) <= 1
 0 <= C(ALPHA,ALPHA,6) <= 1
 0 <= C(ALPHA,C1,1) <= 1
 0 <= C(ALPHA,C1,2) <= 1
 0 <= C(ALPHA,C1,3) <= 1
 0 <= C(ALPHA,C1,4) <= 1
 0 <= C(ALPHA,C1,5) <= 1
 0 <= C(ALPHA,C1,6) <= 1
 0 <= C(ALPHA,C2,1) <= 1
 0 <= C(ALPHA,C2,2) <= 1
 0 <= C(ALPHA,C2,3) <= 1
 0 <= C(ALPHA,C2,4) <= 1
 0 <= C(ALPHA,C2,5) <= 1
 0 <= C(ALPHA,C2,6) <= 1
 0 <= C(ALPHA,C3,1) <= 1
 0 <= C(ALPHA,C3,2) <= 1
 0 <= C(ALPHA,C3,3) <= 1
 0 <= C(ALPHA,C3,4) <= 1
 0 <= C(ALPHA,C3,5) <= 1
 0 <= C(ALPHA,C3,6) <= 1
 0 <= C(ALPHA,C4,1) <= 1
 0 <= C(ALPHA,C4,2) <= 1
 0 <= C(ALPHA,C4,3) <= 1
 0 <= C(ALPHA,C4,4) <= 1
 0 <= C(ALPHA,C4,5) <= 1
 0 <= C(ALPHA,C4,6) <= 1
 0 <= C(ALPHA,C5,1) <= 1
 0 <= C(ALPHA,C5,2) <= 1
 0 <= C(ALPHA,C5,3) <= 1
 0 <= C(ALPHA,C5,4) <= 1
 0 <= C(ALPHA,C5,5) <= 1
 0 <= C(ALPHA,C5,6) <= 1
 0 <= C(C1,ALPHA,1) <= 1
 0 <= C(C1,ALPHA,2) <= 1
 0 <= C(C1,ALPHA,3) <= 1
 0 <= C(C1,ALPHA,4) <= 1
 0 <= C(C1,ALPHA,5) <= 1
 0 <= C(C1,ALPHA,6) <= 1
 0 <= C(C1,C1,1) <= 1
 0 <= C(C1,C1,2) <= 1
 0 <= C(C1,C1,3) <= 1
 0 <= C(C1,C1,4) <= 1
 0 <= C(C1,C1,5) <= 1
 0 <= C(C1,C1,6) <= 1
 0 <= C(C1,C2,1) <= 1
 0 <= C(C1,C2,2) <= 1
 0 <= C(C1,C2,3) <= 1
 0 <= C(C1,C2,4) <= 1
 0 <= C(C1,C2,5) <= 1
 0 <= C(C1,C2,6) <= 1
 0 <= C(C1,C3,1) <= 1
 0 <= C(C1,C3,2) <= 1
 0 <= C(C1,C3,3) <= 1
 0 <= C(C1,C3,4) <= 1
 0 <= C(C1,C3,5) <= 1
 0 <= C(C1,C3,6) <= 1
 0 <= C(C1,C4,1) <= 1
 0 <= C(C1,C4,2) <= 1
 0 <= C(C1,C4,3) <= 1
 0 <= C(C1,C4,4) <= 1
 0 <= C(C1,C4,5) <= 1
 0 <= C(C1,C4,6) <= 1
 0 <= C(C1,C5,1) <= 1
 0 <= C(C1,C5,2) <= 1
 0 <= C(C1,C5,3) <= 1
 0 <= C(C1,C5,4) <= 1
 0 <= C(C1,C5,5) <= 1
 0 <= C(C1,C5,6) <= 1
 0 <= C(C2,ALPHA,1) <= 1
 0 <= C(C2,ALPHA,2) <= 1
 0 <= C(C2,ALPHA,3) <= 1
 0 <= C(C2,ALPHA,4) <= 1
 0 <= C(C2,ALPHA,5) <= 1
 0 <= C(C2,ALPHA,6) <= 1
 0 <= C(C2,C1,1) <= 1
 0 <= C(C2,C1,2) <= 1
 0 <= C(C2,C1,3) <= 1
 0 <= C(C2,C1,4) <= 1
 0 <= C(C2,C1,5) <= 1
 0 <= C(C2,C1,6) <= 1
 0 <= C(C2,C2,1) <= 1
 0 <= C(C2,C2,2) <= 1
 0 <= C(C2,C2,3) <= 1
 0 <= C(C2,C2,4) <= 1
 0 <= C(C2,C2,5) <= 1
 0 <= C(C2,C2,6) <= 1
 0 <= C(C2,C3,1) <= 1
 0 <= C(C2,C3,2) <= 1
 0 <= C(C2,C3,3) <= 1
 0 <= C(C2,C3,4) <= 1
 0 <= C(C2,C3,5) <= 1
 0 <= C(C2,C3,6) <= 1
 0 <= C(C2,C4,1) <= 1
 0 <= C(C2,C4,2) <= 1
 0 <= C(C2,C4,3) <= 1
 0 <= C(C2,C4,4) <= 1
 0 <= C(C2,C4,5) <= 1
 0 <= C(C2,C4,6) <= 1
 0 <= C(C2,C5,1) <= 1
 0 <= C(C2,C5,2) <= 1
 0 <= C(C2,C5,3) <= 1
 0 <= C(C2,C5,4) <= 1
 0 <= C(C2,C5,5) <= 1
 0 <= C(C2,C5,6) <= 1
 0 <= C(C3,ALPHA,1) <= 1
 0 <= C(C3,ALPHA,2) <= 1
 0 <= C(C3,ALPHA,3) <= 1
 0 <= C(C3,ALPHA,4) <= 1
 0 <= C(C3,ALPHA,5) <= 1
 0 <= C(C3,ALPHA,6) <= 1
 0 <= C(C3,C1,1) <= 1
 0 <= C(C3,C1,2) <= 1
 0 <= C(C3,C1,3) <= 1
 0 <= C(C3,C1,4) <= 1
 0 <= C(C3,C1,5) <= 1
 0 <= C(C3,C1,6) <= 1
 0 <= C(C3,C2,1) <= 1
 0 <= C(C3,C2,2) <= 1
 0 <= C(C3,C2,3) <= 1
 0 <= C(C3,C2,4) <= 1
 0 <= C(C3,C2,5) <= 1
 0 <= C(C3,C2,6) <= 1
 0 <= C(C3,C3,1) <= 1
 0 <= C(C3,C3,2) <= 1
 0 <= C(C3,C3,3) <= 1
 0 <= C(C3,C3,4) <= 1
 0 <= C(C3,C3,5) <= 1
 0 <= C(C3,C3,6) <= 1
 0 <= C(C3,C4,1) <= 1
 0 <= C(C3,C4,2) <= 1
 0 <= C(C3,C4,3) <= 1
 0 <= C(C3,C4,4) <= 1
 0 <= C(C3,C4,5) <= 1
 0 <= C(C3,C4,6) <= 1
 0 <= C(C3,C5,1) <= 1
 0 <= C(C3,C5,2) <= 1
 0 <= C(C3,C5,3) <= 1
 0 <= C(C3,C5,4) <= 1
 0 <= C(C3,C5,5) <= 1
 0 <= C(C3,C5,6) <= 1
 0 <= C(C4,ALPHA,1) <= 1
 0 <= C(C4,ALPHA,2) <= 1
 0 <= C(C4,ALPHA,3) <= 1
 0 <= C(C4,ALPHA,4) <= 1
 0 <= C(C4,ALPHA,5) <= 1
 0 <= C(C4,ALPHA,6) <= 1
 0 <= C(C4,C1,1) <= 1
 0 <= C(C4,C1,2) <= 1
 0 <= C(C4,C1,3) <= 1
 0 <= C(C4,C1,4) <= 1
 0 <= C(C4,C1,5) <= 1
 0 <= C(C4,C1,6) <= 1
 0 <= C(C4,C2,1) <= 1
 0 <= C(C4,C2,2) <= 1
 0 <= C(C4,C2,3) <= 1
 0 <= C(C4,C2,4) <= 1
 0 <= C(C4,C2,5) <= 1
 0 <= C(C4,C2,6) <= 1
 0 <= C(C4,C3,1) <= 1
 0 <= C(C4,C3,2) <= 1
 0 <= C(C4,C3,3) <= 1
 0 <= C(C4,C3,4) <= 1
 0 <= C(C4,C3,5) <= 1
 0 <= C(C4,C3,6) <= 1
 0 <= C(C4,C4,1) <= 1
 0 <= C(C4,C4,2) <= 1
 0 <= C(C4,C4,3) <= 1
 0 <= C(C4,C4,4) <= 1
 0 <= C(C4,C4,5) <= 1
 0 <= C(C4,C4,6) <= 1
 0 <= C(C4,C5,1) <= 1
 0 <= C(C4,C5,2) <= 1
 0 <= C(C4,C5,3) <= 1
 0 <= C(C4,C5,4) <= 1
 0 <= C(C4,C5,5) <= 1
 0 <= C(C4,C5,6) <= 1
 0 <= C(C5,ALPHA,1) <= 1
 0 <= C(C5,ALPHA,2) <= 1
 0 <= C(C5,ALPHA,3) <= 1
 0 <= C(C5,ALPHA,4) <= 1
 0 <= C(C5,ALPHA,5) <= 1
 0 <= C(C5,ALPHA,6) <= 1
 0 <= C(C5,C1,1) <= 1
 0 <= C(C5,C1,2) <= 1
 0 <= C(C5,C1,3) <= 1
 0 <= C(C5,C1,4) <= 1
 0 <= C(C5,C1,5) <= 1
 0 <= C(C5,C1,6) <= 1
 0 <= C(C5,C2,1) <= 1
 0 <= C(C5,C2,2) <= 1
 0 <= C(C5,C2,3) <= 1
 0 <= C(C5,C2,4) <= 1
 0 <= C(C5,C2,5) <= 1
 0 <= C(C5,C2,6) <= 1
 0 <= C(C5,C3,1) <= 1
 0 <= C(C5,C3,2) <= 1
 0 <= C(C5,C3,3) <= 1
 0 <= C(C5,C3,4) <= 1
 0 <= C(C5,C3,5) <= 1
 0 <= C(C5,C3,6) <= 1
 0 <= C(C5,C4,1) <= 1
 0 <= C(C5,C4,2) <= 1
 0 <= C(C5,C4,3) <= 1
 0 <= C(C5,C4,4) <= 1
 0 <= C(C5,C4,5) <= 1
 0 <= C(C5,C4,6) <= 1
 0 <= C(C5,C5,1) <= 1
 0 <= C(C5,C5,2) <= 1
 0 <= C(C5,C5,3) <= 1
 0 <= C(C5,C5,4) <= 1
 0 <= C(C5,C5,5) <= 1
 0 <= C(C5,C5,6) <= 1

Generals
 C(ALPHA,ALPHA,1)
 C(ALPHA,ALPHA,2)
 C(ALPHA,ALPHA,3)
 C(ALPHA,ALPHA,4)
 C(ALPHA,ALPHA,5)
 C(ALPHA,ALPHA,6)
 C(ALPHA,C1,1)
 C(ALPHA,C1,2)
 C(ALPHA,C1,3)
 C(ALPHA,C1,4)
 C(ALPHA,C1,5)
 C(ALPHA,C1,6)
 C(ALPHA,C2,1)
 C(ALPHA,C2,2)
 C(ALPHA,C2,3)
 C(ALPHA,C2,4)
 C(ALPHA,C2,5)
 C(ALPHA,C2,6)
 C(ALPHA,C3,1)
 C(ALPHA,C3,2)
 C(ALPHA,C3,3)
 C(ALPHA,C3,4)
 C(ALPHA,C3,5)
 C(ALPHA,C3,6)
 C(ALPHA,C4,1)
 C(ALPHA,C4,2)
 C(ALPHA,C4,3)
 C(ALPHA,C4,4)
 C(ALPHA,C4,5)
 C(ALPHA,C4,6)
 C(ALPHA,C5,1)
 C(ALPHA,C5,2)
 C(ALPHA,C5,3)
 C(ALPHA,C5,4)
 C(ALPHA,C5,5)
 C(ALPHA,C5,6)
 C(C1,ALPHA,1)
 C(C1,ALPHA,2)
 C(C1,ALPHA,3)
 C(C1,ALPHA,4)
 C(C1,ALPHA,5)
 C(C1,ALPHA,6)
 C(C1,C1,1)
 C(C1,C1,2)
 C(C1,C1,3)
 C(C1,C1,4)
 C(C1,C1,5)
 C(C1,C1,6)
 C(C1,C2,1)
 C(C1,C2,2)
 C(C1,C2,3)
 C(C1,C2,4)
 C(C1,C2,5)
 C(C1,C2,6)
 C(C1,C3,1)
 C(C1,C3,2)
 C(C1,C3,3)
 C(C1,C3,4)
 C(C1,C3,5)
 C(C1,C3,6)
 C(C1,C4,1)
 C(C1,C4,2)
 C(C1,C4,3)
 C(C1,C4,4)
 C(C1,C4,5)
 C(C1,C4,6)
 C(C1,C5,1)
 C(C1,C5,2)
 C(C1,C5,3)
 C(C1,C5,4)
 C(C1,C5,5)
 C(C1,C5,6)
 C(C2,ALPHA,1)
 C(C2,ALPHA,2)
 C(C2,ALPHA,3)
 C(C2,ALPHA,4)
 C(C2,ALPHA,5)
 C(C2,ALPHA,6)
 C(C2,C1,1)
 C(C2,C1,2)
 C(C2,C1,3)
 C(C2,C1,4)
 C(C2,C1,5)
 C(C2,C1,6)
 C(C2,C2,1)
 C(C2,C2,2)
 C(C2,C2,3)
 C(C2,C2,4)
 C(C2,C2,5)
 C(C2,C2,6)
 C(C2,C3,1)
 C(C2,C3,2)
 C(C2,C3,3)
 C(C2,C3,4)
 C(C2,C3,5)
 C(C2,C3,6)
 C(C2,C4,1)
 C(C2,C4,2)
 C(C2,C4,3)
 C(C2,C4,4)
 C(C2,C4,5)
 C(C2,C4,6)
 C(C2,C5,1)
 C(C2,C5,2)
 C(C2,C5,3)
 C(C2,C5,4)
 C(C2,C5,5)
 C(C2,C5,6)
 C(C3,ALPHA,1)
 C(C3,ALPHA,2)
 C(C3,ALPHA,3)
 C(C3,ALPHA,4)
 C(C3,ALPHA,5)
 C(C3,ALPHA,6)
 C(C3,C1,1)
 C(C3,C1,2)
 C(C3,C1,3)
 C(C3,C1,4)
 C(C3,C1,5)
 C(C3,C1,6)
 C(C3,C2,1)
 C(C3,C2,2)
 C(C3,C2,3)
 C(C3,C2,4)
 C(C3,C2,5)
 C(C3,C2,6)
 C(C3,C3,1)
 C(C3,C3,2)
 C(C3,C3,3)
 C(C3,C3,4)
 C(C3,C3,5)
 C(C3,C3,6)
 C(C3,C4,1)
 C(C3,C4,2)
 C(C3,C4,3)
 C(C3,C4,4)
 C(C3,C4,5)
 C(C3,C4,6)
 C(C3,C5,1)
 C(C3,C5,2)
 C(C3,C5,3)
 C(C3,C5,4)
 C(C3,C5,5)
 C(C3,C5,6)
 C(C4,ALPHA,1)
 C(C4,ALPHA,2)
 C(C4,ALPHA,3)
 C(C4,ALPHA,4)
 C(C4,ALPHA,5)
 C(C4,ALPHA,6)
 C(C4,C1,1)
 C(C4,C1,2)
 C(C4,C1,3)
 C(C4,C1,4)
 C(C4,C1,5)
 C(C4,C1,6)
 C(C4,C2,1)
 C(C4,C2,2)
 C(C4,C2,3)
 C(C4,C2,4)
 C(C4,C2,5)
 C(C4,C2,6)
 C(C4,C3,1)
 C(C4,C3,2)
 C(C4,C3,3)
 C(C4,C3,4)
 C(C4,C3,5)
 C(C4,C3,6)
 C(C4,C4,1)
 C(C4,C4,2)
 C(C4,C4,3)
 C(C4,C4,4)
 C(C4,C4,5)
 C(C4,C4,6)
 C(C4,C5,1)
 C(C4,C5,2)
 C(C4,C5,3)
 C(C4,C5,4)
 C(C4,C5,5)
 C(C4,C5,6)
 C(C5,ALPHA,1)
 C(C5,ALPHA,2)
 C(C5,ALPHA,3)
 C(C5,ALPHA,4)
 C(C5,ALPHA,5)
 C(C5,ALPHA,6)
 C(C5,C1,1)
 C(C5,C1,2)
 C(C5,C1,3)
 C(C5,C1,4)
 C(C5,C1,5)
 C(C5,C1,6)
 C(C5,C2,1)
 C(C5,C2,2)
 C(C5,C2,3)
 C(C5,C2,4)
 C(C5,C2,5)
 C(C5,C2,6)
 C(C5,C3,1)
 C(C5,C3,2)
 C(C5,C3,3)
 C(C5,C3,4)
 C(C5,C3,5)
 C(C5,C3,6)
 C(C5,C4,1)
 C(C5,C4,2)
 C(C5,C4,3)
 C(C5,C4,4)
 C(C5,C4,5)
 C(C5,C4,6)
 C(C5,C5,1)
 C(C5,C5,2)
 C(C5,C5,3)
 C(C5,C5,4)
 C(C5,C5,5)
 C(C5,C5,6)

End
